75
1 0 10
2 0 8
4 0 1
4 2 4
5 0 9
5 1 9
5 2 3
6 0 9
6 2 5
7 0 1
7 1 9
7 5 1
8 0 7
8 1 4
8 6 9
8 7 9
9 1 9
9 3 3
9 5 3
9 6 3
9 8 7
10 0 5
10 2 3
10 4 8
10 6 7
10 7 8
10 8 6
10 9 10
11 0 10
11 2 9
11 4 6
11 6 4
11 8 8
11 9 5
11 10 10
12 2 10
12 3 5
12 5 3
12 8 1
12 9 8
13 1 5
13 4 1
13 5 9
13 6 7
13 8 10
13 12 5
14 1 6
14 2 3
14 4 7
14 6 3
14 7 1
14 8 1
14 11 4
14 12 4
15 0 7
15 1 9
15 4 4
15 6 10
15 11 8
15 12 4
15 13 7
16 1 7
16 2 8
16 5 5
16 6 3
16 7 5
16 8 6
16 9 6
16 10 6
16 13 3
17 0 7
17 2 3
17 3 10
17 5 6
17 8 5
17 10 5
17 11 7
17 15 4
18 0 1
18 1 7
18 3 6
18 4 3
18 5 1
18 6 6
18 11 10
18 13 8
18 14 5
18 15 8
18 16 8
18 17 9
19 1 6
19 2 5
19 3 7
19 5 5
19 8 9
19 9 6
19 10 8
19 12 6
19 14 7
19 15 4
19 16 6
20 0 9
20 1 8
20 2 7
20 4 3
20 5 5
20 7 2
20 10 8
20 19 7
21 2 4
21 3 7
21 5 2
21 10 4
21 12 8
21 13 3
21 14 1
21 17 3
21 18 7
22 0 1
22 6 3
22 8 5
22 9 8
22 10 8
22 11 6
22 12 4
22 13 2
22 16 7
22 19 4
22 21 5
23 1 4
23 6 9
23 8 5
23 10 7
23 11 2
23 19 4
23 20 3
23 21 1
24 3 5
24 4 4
24 6 10
24 7 6
24 9 7
24 10 10
24 12 7
24 13 6
24 14 3
24 15 3
24 16 1
24 18 2
24 21 8
24 22 5
24 23 2
25 3 7
25 6 8
25 7 7
25 8 8
25 9 7
25 10 6
25 15 3
25 16 6
25 19 5
25 20 1
26 0 5
26 4 4
26 5 5
26 6 4
26 7 5
26 9 5
26 11 4
26 12 10
26 13 9
26 14 8
26 15 5
26 16 4
26 17 2
26 18 6
26 19 6
26 20 6
26 21 5
26 22 9
26 24 7
27 0 1
27 1 8
27 4 1
27 6 6
27 7 4
27 9 10
27 10 2
27 11 7
27 12 9
27 13 4
27 14 10
27 15 8
27 16 3
27 17 2
27 20 2
27 23 1
27 25 7
27 26 3
28 3 2
28 4 6
28 5 5
28 6 3
28 7 4
28 9 3
28 10 3
28 11 3
28 13 8
28 15 10
28 16 7
28 19 1
28 21 8
28 23 7
28 25 3
29 0 9
29 2 7
29 4 4
29 6 7
29 9 2
29 10 9
29 11 10
29 13 9
29 14 9
29 15 6
29 17 3
29 18 3
29 20 8
29 23 7
29 25 3
29 28 4
30 1 7
30 2 8
30 4 2
30 5 8
30 7 9
30 10 3
30 11 1
30 13 4
30 14 3
30 15 7
30 16 1
30 19 1
30 21 5
30 23 7
30 24 3
30 25 10
30 27 8
30 28 3
30 29 9
31 2 7
31 3 3
31 4 4
31 5 10
31 8 8
31 10 4
31 12 4
31 13 6
31 14 5
31 15 7
31 16 9
31 21 8
31 23 8
31 24 8
31 27 10
31 30 1
32 0 6
32 1 8
32 4 2
32 5 6
32 6 5
32 9 2
32 10 2
32 11 4
32 12 10
32 13 3
32 14 7
32 18 1
32 23 1
32 24 6
32 27 5
32 31 1
33 0 10
33 1 4
33 2 1
33 3 1
33 4 8
33 7 5
33 8 7
33 9 10
33 10 9
33 11 2
33 12 2
33 14 2
33 19 1
33 24 4
33 27 7
33 28 2
33 31 5
33 32 5
34 1 4
34 3 3
34 5 6
34 6 9
34 7 8
34 11 8
34 12 10
34 15 2
34 17 6
34 18 9
34 22 6
34 23 8
34 25 7
34 26 2
34 27 3
34 29 10
35 0 6
35 1 4
35 2 6
35 5 9
35 6 10
35 7 6
35 10 5
35 13 9
35 14 4
35 15 1
35 17 7
35 18 2
35 20 7
35 21 10
35 22 9
35 23 8
35 24 10
35 28 9
35 31 2
35 33 8
35 34 9
36 0 3
36 3 10
36 7 9
36 8 4
36 9 9
36 10 1
36 11 5
36 12 9
36 15 1
36 19 8
36 20 4
36 23 8
36 25 9
36 26 6
36 27 2
36 29 1
36 31 4
36 32 5
36 33 1
36 35 9
37 0 8
37 3 8
37 4 6
37 5 6
37 6 8
37 8 1
37 10 1
37 16 3
37 17 6
37 18 10
37 20 10
37 21 3
37 22 6
37 25 1
37 27 4
37 30 1
37 31 8
37 36 10
38 0 9
38 3 8
38 4 1
38 5 4
38 6 4
38 9 1
38 12 2
38 13 5
38 16 3
38 22 4
38 23 9
38 25 1
38 26 3
38 28 8
38 29 4
38 30 4
38 31 1
38 36 10
38 37 3
39 1 5
39 2 9
39 3 6
39 4 2
39 9 8
39 10 6
39 16 2
39 18 9
39 19 10
39 21 3
39 22 9
39 23 2
39 24 1
39 25 10
39 27 7
39 28 1
39 30 8
39 31 9
39 32 5
39 33 10
39 34 2
39 35 8
39 36 9
39 38 6
40 0 9
40 2 9
40 3 9
40 6 9
40 9 9
40 10 3
40 11 3
40 12 7
40 13 5
40 15 5
40 16 2
40 17 7
40 18 5
40 20 2
40 21 8
40 24 9
40 25 4
40 26 5
40 27 4
40 30 10
40 31 3
40 35 9
40 36 8
40 37 8
41 0 1
41 2 2
41 6 3
41 7 6
41 9 7
41 10 7
41 12 7
41 17 4
41 18 9
41 19 2
41 20 7
41 21 5
41 26 4
41 28 5
41 32 7
41 38 6
41 40 1
42 0 2
42 1 9
42 2 8
42 3 8
42 8 3
42 9 4
42 10 1
42 13 8
42 14 5
42 16 10
42 17 4
42 18 2
42 21 4
42 23 5
42 25 3
42 26 1
42 28 10
42 29 9
42 31 4
42 32 3
42 33 6
42 34 1
42 35 3
42 36 9
42 40 8
42 41 6
43 1 7
43 2 5
43 3 9
43 5 8
43 10 1
43 11 3
43 15 3
43 21 3
43 22 1
43 24 4
43 25 1
43 26 4
43 27 5
43 30 4
43 31 9
43 34 2
44 0 5
44 1 1
44 2 9
44 3 5
44 5 8
44 7 6
44 8 2
44 10 9
44 12 4
44 13 7
44 14 3
44 16 8
44 18 7
44 20 2
44 22 8
44 23 1
44 26 9
44 28 3
44 30 2
44 31 2
44 32 6
44 33 6
44 36 10
44 37 7
44 41 9
45 0 2
45 1 7
45 5 10
45 6 8
45 7 8
45 8 8
45 10 6
45 14 7
45 15 4
45 16 10
45 17 4
45 19 8
45 21 4
45 22 4
45 25 2
45 26 5
45 27 6
45 28 6
45 32 8
45 34 7
45 40 10
45 42 3
45 43 5
45 44 6
46 5 9
46 6 4
46 11 7
46 12 4
46 16 6
46 17 2
46 18 5
46 20 7
46 22 3
46 23 2
46 26 3
46 29 3
46 30 3
46 31 6
46 32 9
46 34 10
46 35 7
46 37 3
46 43 5
46 45 2
47 0 8
47 1 9
47 4 4
47 8 1
47 9 7
47 10 4
47 11 9
47 13 6
47 14 5
47 15 3
47 16 9
47 17 8
47 21 5
47 24 6
47 25 7
47 31 7
47 32 3
47 35 9
47 36 9
47 37 9
47 38 4
47 39 9
47 41 4
47 46 10
48 1 3
48 4 2
48 6 3
48 7 6
48 8 5
48 12 9
48 13 8
48 18 10
48 19 2
48 20 2
48 21 5
48 22 8
48 23 4
48 26 4
48 27 5
48 29 3
48 30 5
48 32 4
48 36 1
48 37 9
48 38 1
48 40 8
48 43 5
48 44 8
48 45 9
48 46 1
49 1 10
49 2 5
49 3 4
49 4 5
49 6 7
49 8 9
49 12 8
49 13 6
49 15 1
49 16 9
49 17 4
49 20 1
49 22 7
49 26 3
49 27 2
49 28 8
49 30 1
49 31 6
49 35 1
49 36 7
49 39 8
49 40 10
49 42 5
49 43 5
49 44 7
49 45 10
49 46 6
49 47 6
49 48 3
50 0 4
50 1 7
50 2 6
50 3 10
50 7 7
50 8 5
50 16 6
50 17 5
50 23 8
50 25 6
50 26 1
50 27 1
50 29 8
50 30 1
50 31 4
50 33 3
50 36 4
50 39 2
50 40 6
50 41 6
50 44 6
50 45 10
50 46 3
51 3 7
51 4 10
51 7 6
51 12 3
51 14 5
51 19 2
51 22 7
51 26 3
51 28 10
51 29 3
51 33 3
51 34 4
51 37 7
51 40 4
51 41 2
51 44 2
51 45 1
51 46 2
51 50 5
52 0 7
52 2 1
52 3 6
52 6 5
52 7 2
52 9 9
52 11 9
52 12 5
52 14 3
52 16 3
52 18 2
52 19 4
52 20 2
52 22 1
52 24 10
52 25 1
52 27 9
52 28 10
52 29 2
52 30 9
52 31 5
52 34 2
52 35 6
52 36 1
52 37 1
52 39 1
52 44 7
52 45 8
52 47 2
52 48 6
52 50 8
53 0 6
53 4 2
53 5 3
53 6 9
53 9 7
53 11 5
53 13 6
53 14 8
53 15 9
53 16 3
53 19 10
53 20 2
53 22 3
53 27 9
53 30 6
53 33 2
53 34 7
53 37 10
53 42 8
53 44 1
53 47 1
53 48 7
53 49 5
53 51 1
53 52 7
54 1 3
54 2 9
54 11 4
54 12 1
54 15 10
54 16 1
54 17 3
54 22 10
54 24 7
54 25 5
54 26 10
54 31 6
54 37 1
54 39 10
54 42 4
54 44 3
54 45 10
54 46 1
54 48 4
54 51 2
55 2 5
55 3 5
55 5 1
55 6 5
55 8 9
55 13 1
55 15 5
55 19 4
55 20 7
55 26 3
55 33 1
55 34 10
55 41 10
55 44 10
55 45 7
55 46 10
55 49 1
55 50 3
55 54 9
56 0 2
56 2 7
56 3 7
56 4 1
56 6 10
56 8 6
56 10 5
56 11 9
56 12 8
56 13 3
56 20 6
56 25 3
56 27 10
56 30 7
56 31 8
56 32 5
56 36 10
56 39 1
56 41 5
56 44 5
56 45 3
56 46 4
56 48 3
56 49 5
56 50 5
57 2 1
57 4 4
57 6 10
57 8 4
57 9 4
57 11 5
57 13 3
57 15 3
57 16 4
57 18 10
57 19 1
57 20 8
57 23 3
57 29 8
57 30 6
57 33 9
57 35 6
57 36 9
57 37 6
57 38 8
57 40 7
57 41 6
57 42 3
57 55 4
57 56 1
58 1 4
58 2 7
58 9 7
58 12 10
58 17 9
58 19 10
58 20 7
58 21 7
58 22 4
58 25 6
58 26 7
58 27 3
58 33 4
58 36 6
58 39 5
58 40 9
58 41 9
58 42 8
58 43 6
58 52 9
58 56 3
58 57 6
59 2 9
59 4 7
59 7 6
59 8 10
59 9 3
59 11 2
59 15 5
59 16 3
59 21 4
59 22 8
59 24 7
59 26 10
59 27 9
59 30 1
59 34 3
59 35 9
59 36 7
59 40 1
59 42 8
59 44 6
59 46 4
59 47 1
59 49 6
59 53 7
59 54 2
59 56 8
59 57 3
59 58 9
60 0 10
60 2 7
60 3 5
60 4 8
60 5 6
60 6 9
60 7 2
60 8 2
60 10 5
60 11 8
60 12 4
60 13 10
60 16 4
60 18 7
60 20 9
60 23 8
60 24 8
60 25 4
60 28 6
60 32 5
60 33 10
60 34 8
60 35 10
60 37 6
60 40 10
60 42 3
60 44 7
60 45 6
60 46 10
60 48 7
60 49 6
60 50 10
60 52 8
60 53 9
60 54 7
60 57 9
60 58 8
60 59 1
61 0 10
61 5 10
61 7 5
61 12 8
61 14 2
61 15 1
61 20 1
61 23 5
61 27 3
61 28 6
61 30 1
61 31 5
61 32 6
61 33 6
61 36 3
61 38 9
61 39 8
61 40 2
61 41 2
61 44 5
61 45 1
61 46 2
61 50 9
61 51 7
61 55 7
61 57 5
61 58 5
62 3 2
62 5 8
62 6 4
62 7 10
62 8 3
62 9 10
62 11 2
62 14 6
62 17 4
62 24 8
62 26 2
62 29 8
62 30 1
62 32 7
62 33 4
62 34 10
62 37 6
62 38 3
62 39 9
62 40 4
62 41 3
62 42 7
62 43 10
62 44 6
62 46 5
62 49 3
62 50 5
62 52 7
62 53 5
62 59 2
62 61 4
63 4 1
63 5 4
63 10 3
63 11 6
63 14 3
63 15 8
63 16 5
63 17 1
63 18 7
63 19 7
63 20 7
63 22 4
63 23 4
63 24 2
63 25 4
63 28 9
63 31 8
63 32 10
63 35 2
63 37 3
63 38 7
63 39 2
63 40 4
63 41 8
63 42 4
63 43 8
63 44 5
63 46 5
63 47 2
63 48 1
63 49 7
63 50 6
63 51 8
63 52 4
63 56 1
63 57 7
63 59 8
64 1 7
64 2 7
64 5 1
64 10 8
64 11 9
64 12 4
64 13 3
64 14 10
64 23 3
64 26 4
64 27 5
64 28 3
64 30 3
64 31 10
64 34 1
64 35 10
64 36 6
64 37 2
64 40 10
64 44 1
64 47 8
64 48 10
64 50 10
64 52 6
64 53 8
64 54 5
64 55 9
64 58 5
64 59 3
64 61 6
64 62 3
64 63 4
65 0 3
65 1 4
65 3 7
65 4 8
65 5 10
65 6 7
65 7 9
65 9 6
65 10 1
65 13 1
65 16 1
65 17 3
65 18 1
65 19 9
65 23 9
65 25 9
65 28 6
65 29 1
65 33 1
65 34 5
65 36 6
65 37 10
65 40 8
65 41 9
65 42 5
65 48 4
65 50 7
65 51 8
65 54 6
65 55 10
65 60 1
65 61 7
65 63 3
65 64 7
66 0 7
66 3 7
66 6 1
66 10 1
66 11 2
66 12 4
66 14 6
66 17 10
66 18 2
66 19 4
66 24 7
66 25 10
66 26 2
66 27 4
66 29 8
66 30 7
66 31 5
66 32 6
66 33 10
66 34 6
66 36 4
66 37 6
66 39 8
66 40 6
66 41 7
66 46 9
66 49 3
66 50 6
66 54 10
66 60 5
66 62 7
66 63 4
67 0 2
67 1 7
67 2 3
67 4 3
67 5 9
67 8 7
67 10 2
67 13 3
67 14 3
67 15 1
67 16 8
67 17 4
67 18 10
67 19 3
67 22 1
67 23 7
67 24 1
67 30 2
67 31 2
67 32 10
67 33 1
67 36 7
67 37 7
67 38 1
67 42 8
67 43 10
67 47 3
67 48 10
67 49 7
67 50 5
67 51 6
67 53 6
67 54 10
67 55 1
67 56 9
67 59 10
67 61 2
67 62 5
67 64 1
67 66 7
68 3 7
68 4 3
68 7 10
68 10 9
68 11 3
68 13 5
68 14 10
68 17 4
68 20 1
68 21 8
68 22 8
68 23 6
68 24 6
68 25 3
68 26 2
68 27 6
68 28 7
68 30 1
68 31 2
68 38 4
68 40 3
68 41 4
68 45 8
68 48 2
68 49 3
68 50 7
68 52 8
68 53 3
68 57 6
68 58 10
68 61 6
68 62 8
68 64 4
69 0 4
69 1 6
69 6 10
69 7 10
69 9 10
69 10 8
69 11 6
69 12 4
69 14 6
69 15 8
69 16 2
69 18 1
69 20 6
69 24 8
69 27 1
69 33 7
69 35 6
69 42 8
69 44 5
69 45 9
69 46 4
69 48 8
69 52 4
69 54 6
69 59 5
69 60 7
69 64 6
69 66 4
70 0 6
70 1 3
70 2 6
70 5 2
70 6 10
70 7 8
70 9 5
70 11 10
70 12 6
70 14 5
70 15 6
70 19 10
70 22 5
70 23 4
70 25 3
70 30 2
70 32 2
70 34 1
70 36 7
70 38 5
70 39 10
70 41 6
70 42 1
70 51 5
70 53 10
70 56 2
70 58 1
70 64 10
70 67 2
70 69 10
71 1 3
71 4 5
71 6 8
71 10 7
71 12 6
71 22 9
71 24 8
71 25 6
71 29 3
71 30 8
71 32 5
71 33 4
71 34 1
71 38 1
71 39 5
71 40 2
71 42 4
71 43 3
71 44 3
71 45 4
71 48 9
71 49 2
71 50 5
71 51 4
71 52 3
71 53 10
71 63 1
71 65 3
71 68 4
72 2 5
72 8 9
72 13 4
72 14 5
72 16 4
72 17 6
72 18 4
72 20 2
72 23 5
72 24 9
72 25 8
72 26 3
72 27 8
72 30 10
72 32 5
72 36 9
72 38 4
72 40 7
72 44 2
72 46 3
72 48 6
72 50 9
72 51 5
72 52 9
72 53 3
72 54 2
72 58 10
72 65 8
72 68 2
73 1 7
73 3 5
73 4 2
73 9 9
73 11 10
73 14 7
73 15 3
73 16 3
73 19 9
73 20 2
73 23 9
73 28 8
73 29 9
73 30 6
73 33 7
73 35 10
73 38 6
73 40 7
73 44 6
73 45 8
73 46 1
73 48 4
73 49 3
73 53 9
73 58 5
73 59 4
73 60 1
73 64 6
73 65 10
73 66 7
73 69 9
73 70 1
73 71 6
73 72 9
74 1 2
74 3 10
74 4 7
74 6 3
74 8 8
74 12 6
74 14 6
74 15 10
74 18 10
74 20 9
74 21 3
74 22 8
74 23 5
74 27 1
74 28 4
74 31 10
74 32 6
74 33 9
74 34 4
74 35 3
74 37 2
74 39 6
74 43 1
74 48 10
74 50 3
74 51 8
74 52 3
74 53 10
74 54 6
74 56 5
74 57 7
74 60 6
74 61 6
74 62 2
74 64 10
74 65 6
74 68 10
74 69 7
74 70 10
74 72 5
74 73 1
